language Essence 1.3

letting costTC be
        function((1, 1) --> 11, (1, 2) --> 7, (1, 3) --> 7, (1, 4) --> 9, (1, 5) --> 10, (1, 6) --> 5, (1, 7) --> 11,
                 (1, 8) --> 10, (1, 9) --> 9, (1, 10) --> 6, (1, 11) --> 11, (1, 12) --> 1, (2, 1) --> 7, (2, 2) --> 10,
                 (2, 3) --> 10, (2, 4) --> 2, (2, 5) --> 1, (2, 6) --> 8, (2, 7) --> 2, (2, 8) --> 3, (2, 9) --> 3,
                 (2, 10) --> 4, (2, 11) --> 11, (2, 12) --> 1, (3, 1) --> 7, (3, 2) --> 2, (3, 3) --> 5, (3, 4) --> 8,
                 (3, 5) --> 11, (3, 6) --> 4, (3, 7) --> 4, (3, 8) --> 4, (3, 9) --> 7, (3, 10) --> 8, (3, 11) --> 5,
                 (3, 12) --> 1, (4, 1) --> 1, (4, 2) --> 9, (4, 3) --> 2, (4, 4) --> 10, (4, 5) --> 4, (4, 6) --> 2,
                 (4, 7) --> 4, (4, 8) --> 11, (4, 9) --> 4, (4, 10) --> 2, (4, 11) --> 1, (4, 12) --> 3, (5, 1) --> 6,
                 (5, 2) --> 6, (5, 3) --> 11, (5, 4) --> 7, (5, 5) --> 4, (5, 6) --> 10, (5, 7) --> 4, (5, 8) --> 3,
                 (5, 9) --> 4, (5, 10) --> 9, (5, 11) --> 7, (5, 12) --> 9, (6, 1) --> 10, (6, 2) --> 3, (6, 3) --> 2,
                 (6, 4) --> 7, (6, 5) --> 11, (6, 6) --> 1, (6, 7) --> 1, (6, 8) --> 5, (6, 9) --> 2, (6, 10) --> 8,
                 (6, 11) --> 9, (6, 12) --> 5, (7, 1) --> 6, (7, 2) --> 7, (7, 3) --> 2, (7, 4) --> 10, (7, 5) --> 7,
                 (7, 6) --> 9, (7, 7) --> 11, (7, 8) --> 11, (7, 9) --> 9, (7, 10) --> 4, (7, 11) --> 6, (7, 12) --> 7,
                 (8, 1) --> 2, (8, 2) --> 6, (8, 3) --> 6, (8, 4) --> 4, (8, 5) --> 1, (8, 6) --> 10, (8, 7) --> 11,
                 (8, 8) --> 1, (8, 9) --> 1, (8, 10) --> 6, (8, 11) --> 2, (8, 12) --> 3, (9, 1) --> 1, (9, 2) --> 3,
                 (9, 3) --> 2, (9, 4) --> 10, (9, 5) --> 3, (9, 6) --> 11, (9, 7) --> 2, (9, 8) --> 7, (9, 9) --> 8,
                 (9, 10) --> 2, (9, 11) --> 11, (9, 12) --> 10, (10, 1) --> 2, (10, 2) --> 10, (10, 3) --> 3,
                 (10, 4) --> 5, (10, 5) --> 11, (10, 6) --> 8, (10, 7) --> 8, (10, 8) --> 4, (10, 9) --> 4,
                 (10, 10) --> 11, (10, 11) --> 2, (10, 12) --> 9, (11, 1) --> 7, (11, 2) --> 4, (11, 3) --> 5,
                 (11, 4) --> 4, (11, 5) --> 10, (11, 6) --> 2, (11, 7) --> 6, (11, 8) --> 3, (11, 9) --> 9,
                 (11, 10) --> 5, (11, 11) --> 7, (11, 12) --> 7)
letting costWT be
        function((1, 1) --> 1, (1, 2) --> 2, (1, 3) --> 3, (1, 4) --> 1, (1, 5) --> 3, (1, 6) --> 2, (1, 7) --> 1,
                 (1, 8) --> 3, (1, 9) --> 2, (1, 10) --> 3, (1, 11) --> 3, (2, 1) --> 1, (2, 2) --> 2, (2, 3) --> 3,
                 (2, 4) --> 1, (2, 5) --> 2, (2, 6) --> 1, (2, 7) --> 3, (2, 8) --> 1, (2, 9) --> 2, (2, 10) --> 1,
                 (2, 11) --> 1, (3, 1) --> 2, (3, 2) --> 1, (3, 3) --> 3, (3, 4) --> 2, (3, 5) --> 3, (3, 6) --> 1,
                 (3, 7) --> 3, (3, 8) --> 3, (3, 9) --> 2, (3, 10) --> 3, (3, 11) --> 2, (4, 1) --> 2, (4, 2) --> 1,
                 (4, 3) --> 3, (4, 4) --> 3, (4, 5) --> 3, (4, 6) --> 3, (4, 7) --> 3, (4, 8) --> 1, (4, 9) --> 2,
                 (4, 10) --> 3, (4, 11) --> 3, (5, 1) --> 1, (5, 2) --> 1, (5, 3) --> 3, (5, 4) --> 2, (5, 5) --> 1,
                 (5, 6) --> 1, (5, 7) --> 3, (5, 8) --> 2, (5, 9) --> 3, (5, 10) --> 3, (5, 11) --> 1, (6, 1) --> 3,
                 (6, 2) --> 2, (6, 3) --> 1, (6, 4) --> 2, (6, 5) --> 1, (6, 6) --> 2, (6, 7) --> 1, (6, 8) --> 2,
                 (6, 9) --> 3, (6, 10) --> 2, (6, 11) --> 2, (7, 1) --> 3, (7, 2) --> 3, (7, 3) --> 1, (7, 4) --> 3,
                 (7, 5) --> 1, (7, 6) --> 3, (7, 7) --> 1, (7, 8) --> 3, (7, 9) --> 1, (7, 10) --> 3, (7, 11) --> 3,
                 (8, 1) --> 2, (8, 2) --> 1, (8, 3) --> 1, (8, 4) --> 3, (8, 5) --> 2, (8, 6) --> 3, (8, 7) --> 2,
                 (8, 8) --> 1, (8, 9) --> 2, (8, 10) --> 3, (8, 11) --> 3, (9, 1) --> 3, (9, 2) --> 1, (9, 3) --> 2,
                 (9, 4) --> 3, (9, 5) --> 3, (9, 6) --> 3, (9, 7) --> 3, (9, 8) --> 2, (9, 9) --> 2, (9, 10) --> 3,
                 (9, 11) --> 2, (10, 1) --> 3, (10, 2) --> 3, (10, 3) --> 3, (10, 4) --> 2, (10, 5) --> 1,
                 (10, 6) --> 3, (10, 7) --> 3, (10, 8) --> 1, (10, 9) --> 2, (10, 10) --> 1, (10, 11) --> 3,
                 (11, 1) --> 1, (11, 2) --> 1, (11, 3) --> 2, (11, 4) --> 2, (11, 5) --> 1, (11, 6) --> 1,
                 (11, 7) --> 2, (11, 8) --> 1, (11, 9) --> 2, (11, 10) --> 1, (11, 11) --> 2, (12, 1) --> 1,
                 (12, 2) --> 3, (12, 3) --> 2, (12, 4) --> 2, (12, 5) --> 2, (12, 6) --> 3, (12, 7) --> 2,
                 (12, 8) --> 3, (12, 9) --> 2, (12, 10) --> 2, (12, 11) --> 3, (13, 1) --> 2, (13, 2) --> 1,
                 (13, 3) --> 2, (13, 4) --> 3, (13, 5) --> 3, (13, 6) --> 2, (13, 7) --> 2, (13, 8) --> 1,
                 (13, 9) --> 1, (13, 10) --> 1, (13, 11) --> 1, (14, 1) --> 1, (14, 2) --> 1, (14, 3) --> 2,
                 (14, 4) --> 1, (14, 5) --> 1, (14, 6) --> 2, (14, 7) --> 3, (14, 8) --> 2, (14, 9) --> 2,
                 (14, 10) --> 2, (14, 11) --> 1, (15, 1) --> 3, (15, 2) --> 3, (15, 3) --> 2, (15, 4) --> 1,
                 (15, 5) --> 3, (15, 6) --> 1, (15, 7) --> 2, (15, 8) --> 3, (15, 9) --> 1, (15, 10) --> 3,
                 (15, 11) --> 1, (16, 1) --> 3, (16, 2) --> 1, (16, 3) --> 1, (16, 4) --> 2, (16, 5) --> 2,
                 (16, 6) --> 2, (16, 7) --> 2, (16, 8) --> 1, (16, 9) --> 1, (16, 10) --> 2, (16, 11) --> 1,
                 (17, 1) --> 1, (17, 2) --> 3, (17, 3) --> 3, (17, 4) --> 1, (17, 5) --> 2, (17, 6) --> 3,
                 (17, 7) --> 3, (17, 8) --> 2, (17, 9) --> 1, (17, 10) --> 3, (17, 11) --> 3, (18, 1) --> 2,
                 (18, 2) --> 1, (18, 3) --> 2, (18, 4) --> 2, (18, 5) --> 3, (18, 6) --> 2, (18, 7) --> 2,
                 (18, 8) --> 3, (18, 9) --> 1, (18, 10) --> 3, (18, 11) --> 1, (19, 1) --> 1, (19, 2) --> 2,
                 (19, 3) --> 2, (19, 4) --> 1, (19, 5) --> 1, (19, 6) --> 3, (19, 7) --> 2, (19, 8) --> 2,
                 (19, 9) --> 1, (19, 10) --> 1, (19, 11) --> 2, (20, 1) --> 3, (20, 2) --> 2, (20, 3) --> 2,
                 (20, 4) --> 3, (20, 5) --> 2, (20, 6) --> 1, (20, 7) --> 3, (20, 8) --> 2, (20, 9) --> 2,
                 (20, 10) --> 2, (20, 11) --> 1, (21, 1) --> 1, (21, 2) --> 3, (21, 3) --> 1, (21, 4) --> 2,
                 (21, 5) --> 3, (21, 6) --> 2, (21, 7) --> 1, (21, 8) --> 3, (21, 9) --> 3, (21, 10) --> 1,
                 (21, 11) --> 2, (22, 1) --> 3, (22, 2) --> 2, (22, 3) --> 3, (22, 4) --> 2, (22, 5) --> 2,
                 (22, 6) --> 1, (22, 7) --> 2, (22, 8) --> 2, (22, 9) --> 3, (22, 10) --> 3, (22, 11) --> 3,
                 (23, 1) --> 3, (23, 2) --> 2, (23, 3) --> 2, (23, 4) --> 2, (23, 5) --> 3, (23, 6) --> 1,
                 (23, 7) --> 2, (23, 8) --> 2, (23, 9) --> 3, (23, 10) --> 3, (23, 11) --> 2, (24, 1) --> 1,
                 (24, 2) --> 1, (24, 3) --> 1, (24, 4) --> 3, (24, 5) --> 3, (24, 6) --> 3, (24, 7) --> 2,
                 (24, 8) --> 2, (24, 9) --> 3, (24, 10) --> 3, (24, 11) --> 3, (25, 1) --> 2, (25, 2) --> 1,
                 (25, 3) --> 1, (25, 4) --> 3, (25, 5) --> 2, (25, 6) --> 2, (25, 7) --> 3, (25, 8) --> 3,
                 (25, 9) --> 3, (25, 10) --> 2, (25, 11) --> 1, (26, 1) --> 3, (26, 2) --> 2, (26, 3) --> 1,
                 (26, 4) --> 3, (26, 5) --> 3, (26, 6) --> 3, (26, 7) --> 3, (26, 8) --> 3, (26, 9) --> 2,
                 (26, 10) --> 2, (26, 11) --> 1)
letting demand be
        function(1 --> 5, 2 --> 5, 3 --> 5, 4 --> 5, 5 --> 5, 6 --> 5, 7 --> 5, 8 --> 5, 9 --> 5, 10 --> 5, 11 --> 5,
                 12 --> 5)
letting maxCost be 44
letting n_customer be 12
letting n_transshipment be 11
letting n_warehouses be 26
letting stock be
        function(1 --> 18, 2 --> 18, 3 --> 19, 4 --> 10, 5 --> 19, 6 --> 2, 7 --> 19, 8 --> 2, 9 --> 5, 10 --> 2,
                 11 --> 11, 12 --> 3, 13 --> 5, 14 --> 13, 15 --> 17, 16 --> 19, 17 --> 9, 18 --> 1, 19 --> 5, 20 --> 4,
                 21 --> 8, 22 --> 18, 23 --> 12, 24 --> 17, 25 --> 16, 26 --> 5)
